c Created with the Wolfram Language : www.wolfram.com
c 
p edge 80 455
e 1 2
e 2 5
e 4 5
e 1 10
e 7 10
e 3 12
e 11 13
e 4 14
e 6 14
e 7 14
e 10 14
e 3 15
e 9 15
e 3 16
e 6 16
e 9 16
e 13 16
e 14 16
e 3 17
e 8 17
e 16 17
e 3 19
e 7 19
e 12 19
e 14 19
e 15 19
e 18 19
e 8 20
e 10 20
e 15 20
e 1 21
e 15 21
e 5 22
e 6 22
e 11 22
e 17 22
e 18 22
e 2 23
e 5 23
e 12 23
e 15 23
e 22 23
e 2 24
e 8 24
e 11 24
e 14 24
e 22 24
e 14 25
e 17 25
e 21 25
e 22 25
e 23 25
e 6 27
e 9 27
e 24 27
e 7 28
e 19 28
e 22 28
e 24 28
e 8 29
e 12 29
e 14 29
e 21 29
e 24 29
e 2 30
e 5 30
e 23 30
e 24 30
e 7 31
e 9 31
e 26 31
e 27 31
e 13 32
e 22 32
e 27 32
e 30 32
e 1 33
e 5 33
e 18 33
e 21 33
e 3 34
e 5 34
e 8 34
e 25 34
e 9 35
e 16 35
e 24 35
e 4 36
e 7 36
e 19 36
e 23 36
e 25 36
e 27 36
e 28 36
e 31 36
e 33 36
e 27 37
e 29 37
e 31 37
e 17 38
e 33 38
e 6 39
e 7 39
e 13 39
e 21 39
e 22 39
e 25 39
e 29 39
e 3 40
e 6 40
e 8 40
e 11 40
e 14 40
e 17 40
e 28 40
e 29 40
e 39 40
e 2 41
e 10 41
e 19 41
e 20 41
e 21 41
e 22 41
e 10 42
e 11 42
e 14 42
e 16 42
e 19 42
e 28 42
e 31 42
e 34 42
e 39 42
e 15 43
e 19 43
e 7 44
e 12 44
e 17 44
e 7 45
e 15 45
e 32 45
e 37 45
e 39 45
e 8 46
e 12 46
e 32 46
e 35 46
e 4 47
e 10 47
e 15 47
e 26 47
e 31 47
e 33 47
e 37 47
e 42 47
e 44 47
e 11 48
e 21 48
e 41 48
e 44 48
e 3 49
e 6 49
e 10 49
e 15 49
e 20 49
e 34 49
e 45 49
e 2 50
e 3 50
e 4 50
e 10 50
e 14 50
e 17 50
e 22 50
e 25 50
e 30 50
e 41 50
e 43 50
e 5 51
e 9 51
e 35 51
e 41 51
e 45 51
e 48 51
e 11 52
e 33 52
e 45 52
e 48 52
e 49 52
e 1 53
e 41 53
e 45 53
e 49 53
e 4 54
e 8 54
e 9 54
e 12 54
e 13 54
e 19 54
e 30 54
e 35 54
e 36 54
e 42 54
e 49 54
e 1 55
e 6 55
e 9 55
e 10 55
e 17 55
e 26 55
e 29 55
e 31 55
e 35 55
e 40 55
e 1 56
e 24 56
e 25 56
e 33 56
e 34 56
e 36 56
e 38 56
e 44 56
e 51 56
e 2 57
e 10 57
e 4 58
e 7 58
e 16 58
e 24 58
e 27 58
e 38 58
e 6 59
e 7 59
e 10 59
e 22 59
e 31 59
e 49 59
e 55 59
e 14 60
e 15 60
e 18 60
e 20 60
e 38 60
e 39 60
e 45 60
e 51 60
e 54 60
e 57 60
e 58 60
e 10 61
e 20 61
e 25 61
e 32 61
e 38 61
e 42 61
e 43 61
e 44 61
e 45 61
e 47 61
e 48 61
e 51 61
e 54 61
e 41 62
e 43 62
e 44 62
e 57 62
e 2 63
e 5 63
e 9 63
e 12 63
e 15 63
e 18 63
e 20 63
e 22 63
e 27 63
e 42 63
e 46 63
e 49 63
e 54 63
e 1 64
e 6 64
e 8 64
e 14 64
e 24 64
e 39 64
e 61 64
e 15 65
e 19 65
e 21 65
e 24 65
e 32 65
e 35 65
e 36 65
e 37 65
e 48 65
e 49 65
e 56 65
e 5 66
e 6 66
e 9 66
e 43 66
e 44 66
e 48 66
e 50 66
e 53 66
e 55 66
e 8 67
e 9 67
e 19 67
e 34 67
e 35 67
e 38 67
e 45 67
e 51 67
e 56 67
e 60 67
e 64 67
e 65 67
e 1 68
e 15 68
e 31 68
e 32 68
e 43 68
e 47 68
e 51 68
e 55 68
e 63 68
e 1 69
e 3 69
e 20 69
e 24 69
e 38 69
e 41 69
e 48 69
e 57 69
e 59 69
e 60 69
e 67 69
e 10 70
e 11 70
e 28 70
e 29 70
e 31 70
e 50 70
e 54 70
e 55 70
e 57 70
e 66 70
e 67 70
e 3 71
e 4 71
e 17 71
e 37 71
e 39 71
e 41 71
e 64 71
e 69 71
e 5 72
e 13 72
e 16 72
e 32 72
e 33 72
e 35 72
e 39 72
e 47 72
e 49 72
e 55 72
e 1 73
e 3 73
e 9 73
e 10 73
e 17 73
e 20 73
e 21 73
e 27 73
e 37 73
e 48 73
e 50 73
e 57 73
e 59 73
e 25 74
e 38 74
e 41 74
e 43 74
e 46 74
e 49 74
e 52 74
e 64 74
e 69 74
e 70 74
e 72 74
e 5 75
e 6 75
e 8 75
e 17 75
e 18 75
e 21 75
e 23 75
e 24 75
e 43 75
e 53 75
e 56 75
e 61 75
e 2 76
e 9 76
e 17 76
e 23 76
e 32 76
e 34 76
e 44 76
e 46 76
e 57 76
e 3 77
e 11 77
e 13 77
e 19 77
e 31 77
e 45 77
e 60 77
e 7 78
e 12 78
e 13 78
e 23 78
e 25 78
e 31 78
e 38 78
e 43 78
e 55 78
e 65 78
e 68 78
e 69 78
e 72 78
e 1 79
e 3 79
e 5 79
e 9 79
e 21 79
e 30 79
e 37 79
e 40 79
e 44 79
e 46 79
e 61 79
e 63 79
e 65 79
e 66 79
e 4 80
e 9 80
e 22 80
e 33 80
e 41 80
e 48 80
e 50 80
e 59 80
e 62 80
e 70 80
